c
c start with comments
c
p cnf 25 15
9 19 -4 0
4 -10 21 0
12 -2 0
22 24 -18 0
-6 18 -11 -7 0
-23 -17 -6 5 0
-3 -16 0
23 -25 -4 21 2 -15 0
15 -20 18 0
-4 -23 -22 0
1 14 0
-7 -17 23 0
9 -15 2 -24 9 0
-20 7 -13 0
3 8 0